Name: EasyAcademy19
Courses: 126
Rooms: 12
Days: 5
Periods_per_day: 7
Curricula: 21
Min_Max_Daily_Lectures: 2 5
UnavailabilityConstraints: 515
RoomConstraints: 87

COURSES:
c26995 t4143 2 2 95 0
c26996 t61032 2 2 100 0
c26997 t4145 2 2 150 0
c27000 t4155 2 2 346 0
c27001 t4153 2 2 346 0
c27002 t61143 2 2 346 0
c27003 t95447 2 2 346 0
c27004 t4151 2 2 150 0
c27005 t4151 2 2 346 0
c27011 t4166 3 3 346 0
c27012 t4168 3 3 346 0
c27013 t4166 3 3 346 0
c27016 t61055 2 2 90 0
c27020 t4177 2 2 60 0
c27021 t67878 2 2 60 0
c27023 t4252 2 2 150 0
c27024 t4252 2 2 70 0
c27025 t98255 2 2 200 0
c27029 t4186 2 2 346 0
c27034 t4199 2 2 346 0
c27035 t4199 2 2 346 0
c27036 t4203 2 2 346 0
c27037 t61082 2 2 346 0
c27038 t4207 2 2 346 0
c27039 t61087 2 2 35 0
c27040 t97566 1 1 70 0
c27041 t61085 2 2 35 0
c27045 t91343 2 2 346 0
c27056 t4228 3 3 250 0
c27057 t4331 3 3 250 0
c27058 t4230 3 3 100 0
c27061 t99722 2 2 70 0
c27062 t4236 2 2 230 0
c27063 t4233 2 2 100 0
c27064 t61122 2 2 100 0
c27065 t67851 2 2 250 0
c27066 t67848 2 2 250 0
c27067 t98263 2 2 250 0
c27068 t4233 2 2 250 0
c27071 t61068 1 1 60 0
c27072 t61085 2 2 60 0
c27073 t61087 2 2 50 0
c27074 t61068 1 1 50 0
c27075 t4238 2 2 164 0
c27076 t61140 2 2 164 0
c27077 t61143 2 2 346 0
c27078 t4155 2 2 346 0
c27079 t4155 2 2 164 0
c27082 t61055 2 2 184 0
c27085 t4250 2 2 70 0
c27086 t91326 2 2 90 0
c27087 t4262 2 2 130 0
c27088 t4252 2 2 263 0
c27089 t4254 2 2 237 0
c27090 t4186 1 1 346 0
c27091 t4186 3 3 346 0
c27093 t4303 3 3 346 0
c27095 t91343 2 2 346 0
c27099 t61117 2 2 68 0
c27100 t4233 2 2 180 0
c27102 t4273 1 1 346 0
c27106 t4279 3 3 50 0
c27107 t68001 2 2 10 0
c27110 t4143 2 2 176 0
c27111 t4145 2 2 122 0
c27112 t4356 2 2 30 0
c27113 t67914 2 2 109 0
c27114 t61042 2 2 109 0
c27115 t67917 2 2 100 0
c27116 t67917 2 2 330 0
c27121 t4295 2 2 109 0
c27123 no_teacher1 1 1 346 0
c27124 t61193 2 2 50 0
c27125 t4254 2 2 30 0
c27126 t4177 2 2 70 0
c27127 t61143 2 2 100 0
c27128 t4248 2 2 150 0
c27129 t67934 2 2 80 0
c27133 t4259 3 3 109 0
c27134 t4303 3 3 109 0
c27135 t4303 1 1 109 0
c27147 t4319 2 2 50 0
c27148 t4321 2 2 280 0
c27149 no_teacher2 2 2 80 0
c27151 t67961 2 2 90 0
c27152 t97572 2 2 103 0
c27153 t99448 2 2 100 0
c27154 t99725 2 2 100 0
c27160 t4334 3 3 60 0
c27161 t4336 2 2 90 0
c27162 t4338 2 2 100 0
c27163 t91423 1 1 203 0
c27164 t91423 2 2 203 0
c27165 t4236 2 2 201 0
c27167 t4271 2 2 60 0
c27168 t4344 2 2 193 0
c27169 t4254 2 2 160 0
c27170 t61241 2 2 193 0
c27171 t4143 2 2 160 0
c27172 t4262 2 2 193 0
c27173 t4262 2 2 160 0
c27174 t4349 2 2 193 0
c27175 t4151 2 2 160 0
c27176 t97566 1 1 20 0
c27177 t97560 2 2 41 0
c27178 t99730 3 3 70 0
c27183 t4145 2 2 41 0
c27184 t4262 2 2 41 0
c27186 t4153 2 2 41 0
c27189 t4203 2 2 41 0
c27192 t4223 2 2 41 0
c27193 t4226 2 2 41 0
c27194 t97568 2 2 41 0
c27195 t61096 2 2 41 0
c27199 t4183 2 2 41 0
c27200 no_teacher3 2 2 41 0
c27201 t4254 1 1 36 0
c27202 t99446 2 2 36 0
c27203 t99732 2 2 36 0
c27204 t4177 2 2 36 0
c27205 t4177 1 1 36 0
c27206 t97560 2 2 60 0
c27916 t61087 2 2 20 0
c47562 t4259 3 3 20 0
c47564 t99450 2 2 346 0
c47588 t99448 2 2 100 0

ROOMS:
r839 258 0
r840 83 0
r841 93 0
r842 32 0
r843 32 0
r845 132 0
r846 74 0
r847 193 0
r844 30 0
r848 346 3
r908 78 2
r1423 106 1

CURRICULA:
cu1653 9 c27163 c27164 c27178 c27201 c27202 c27203 c27204 c27205 c27206
cu1654 12 c27165 c27177 c27183 c27184 c27186 c27189 c27192 c27193 c27194 c27195 c27199 c27200
cu1655 8 c27151 c27161 c27163 c27164 c27168 c27170 c27172 c27174
cu1656 9 c27152 c27163 c27164 c27168 c27170 c27172 c27174 c27176 c27916
cu1657 7 c27160 c27165 c27167 c27169 c27171 c27173 c27175
cu1658 9 c27153 c27154 c27162 c27165 c27169 c27171 c27173 c27175 c47588
cu1659 17 c27000 c27011 c27029 c27034 c27038 c27045 c27123 c27001 c27002 c27012 c27013 c27035 c27036 c27037 c27039 c27040 c27041
cu1660 14 c27000 c27011 c27029 c27034 c27038 c27045 c27123 c27001 c27002 c27012 c27013 c27035 c27036 c27037
cu1661 14 c26995 c27004 c27020 c27024 c27061 c27066 c27068 c26996 c27003 c27023 c27065 c27067 c27071 c27072
cu1662 13 c26995 c27004 c27016 c27020 c27024 c27061 c27063 c27064 c26996 c27003 c27023 c27065 c27067
cu1663 9 c26997 c27005 c27021 c27025 c27056 c27062 c27057 c27073 c27074
cu1664 7 c26997 c27005 c27021 c27025 c27058 c27062 c27057
cu1665 7 c27077 c27090 c27091 c27093 c27095 c27123 c47562
cu1666 9 c27078 c27088 c27099 c27102 c27110 c47564 c27082 c27100 c27148
cu1667 9 c27062 c27079 c27085 c27086 c27087 c27089 c27111 c27075 c27076
cu1668 11 c27090 c27091 c27095 c27114 c27123 c27133 c27134 c27135 c27113 c27121 c27148
cu1671 6 c27088 c27099 c27110 c27115 c47564 c27147
cu1672 5 c27088 c27099 c27110 c27115 c47564
cu1673 10 c27088 c27099 c27106 c27107 c27110 c27112 c27115 c27125 c27127 c47564
cu1674 8 c27062 c27087 c27089 c27111 c27116 c27086 c27128 c27129
cu1676 8 c27062 c27087 c27089 c27111 c27116 c27126 c27124 c27149

UNAVAILABILITY_CONSTRAINTS:
c26996 0 0
c26996 0 1
c26996 1 0
c26996 2 0
c26996 3 0
c26997 0 0
c26997 3 0
c26997 3 1
c26997 3 2
c26997 3 4
c27000 0 0
c27000 0 1
c27000 0 2
c27000 4 5
c27000 4 6
c27001 0 0
c27001 0 1
c27001 0 2
c27001 0 4
c27001 0 5
c27002 0 0
c27002 0 1
c27002 0 2
c27002 4 5
c27002 4 6
c27011 0 6
c27011 3 0
c27011 3 1
c27011 3 2
c27011 3 6
c27012 3 0
c27012 3 4
c27012 4 0
c27012 4 1
c27012 4 4
c27013 0 6
c27013 3 0
c27013 3 1
c27013 3 2
c27013 3 6
c27016 0 5
c27016 0 6
c27016 1 5
c27016 2 5
c27016 3 5
c27020 0 0
c27020 3 0
c27020 4 0
c27020 4 5
c27020 4 6
c27021 0 0
c27021 1 0
c27021 2 0
c27021 3 0
c27021 4 0
c27023 0 0
c27023 0 1
c27023 1 0
c27023 3 0
c27023 4 0
c27024 0 0
c27024 0 1
c27024 1 0
c27024 3 0
c27024 4 0
c27025 0 0
c27025 1 0
c27025 2 0
c27025 3 0
c27025 4 0
c27029 1 4
c27029 1 5
c27029 1 6
c27029 3 6
c27029 4 0
c27034 3 0
c27034 3 1
c27034 4 0
c27034 4 1
c27034 4 2
c27035 3 0
c27035 3 1
c27035 4 0
c27035 4 1
c27035 4 2
c27036 3 4
c27036 3 5
c27036 4 4
c27036 4 5
c27036 4 6
c27037 2 0
c27037 2 1
c27037 2 2
c27037 3 6
c27037 4 6
c27038 0 0
c27038 1 0
c27038 2 0
c27038 3 0
c27038 4 0
c27039 0 0
c27039 1 0
c27039 1 1
c27039 2 0
c27039 2 1
c27040 0 0
c27040 1 0
c27040 2 0
c27040 3 0
c27040 4 0
c27041 1 1
c27041 1 2
c27041 1 5
c27041 1 6
c27041 4 0
c27045 0 0
c27045 1 0
c27045 2 0
c27045 3 0
c27045 4 0
c27056 1 5
c27056 2 5
c27056 3 5
c27056 4 5
c27057 0 0
c27057 1 0
c27057 2 0
c27057 3 0
c27057 4 0
c27058 4 6
c27062 4 1
c27062 4 2
c27062 4 4
c27062 4 5
c27062 4 6
c27063 2 0
c27063 2 1
c27063 2 2
c27063 2 5
c27063 2 6
c27064 0 0
c27064 1 0
c27064 2 0
c27064 3 0
c27064 4 0
c27065 1 0
c27065 1 1
c27065 1 2
c27065 1 4
c27065 3 1
c27066 0 0
c27066 0 6
c27066 3 6
c27066 4 4
c27066 4 5
c27067 2 6
c27067 3 5
c27067 3 6
c27067 4 5
c27067 4 6
c27068 2 0
c27068 2 1
c27068 2 2
c27068 2 5
c27068 2 6
c27071 0 0
c27071 1 0
c27071 2 0
c27071 3 0
c27071 4 0
c27072 1 1
c27072 1 2
c27072 1 5
c27072 1 6
c27072 4 0
c27073 0 0
c27073 1 0
c27073 1 1
c27073 2 0
c27073 2 1
c27074 0 0
c27074 1 0
c27074 2 0
c27074 3 0
c27074 4 0
c27075 3 4
c27075 3 5
c27075 4 4
c27075 4 5
c27075 4 6
c27076 0 0
c27076 1 0
c27076 2 0
c27076 3 0
c27077 0 0
c27077 0 1
c27077 0 2
c27077 4 5
c27077 4 6
c27078 0 0
c27078 0 1
c27078 0 2
c27078 4 5
c27078 4 6
c27079 0 0
c27079 0 1
c27079 0 2
c27079 4 5
c27079 4 6
c27082 0 5
c27082 0 6
c27082 1 5
c27082 2 5
c27082 3 5
c27086 0 0
c27086 0 4
c27086 3 0
c27086 3 1
c27086 3 2
c27087 0 0
c27087 4 2
c27087 4 4
c27087 4 5
c27087 4 6
c27088 0 0
c27088 0 1
c27088 1 0
c27088 3 0
c27088 4 0
c27089 0 0
c27089 0 6
c27089 1 0
c27089 2 0
c27089 2 5
c27089 3 0
c27089 3 5
c27089 4 0
c27089 4 5
c27090 1 4
c27090 1 5
c27090 1 6
c27090 3 6
c27090 4 0
c27091 1 4
c27091 1 5
c27091 1 6
c27091 3 6
c27091 4 0
c27093 0 0
c27093 1 0
c27093 2 0
c27093 3 0
c27093 4 0
c27095 0 0
c27095 1 0
c27095 2 0
c27095 3 0
c27095 4 0
c27099 4 1
c27099 4 2
c27099 4 4
c27099 4 5
c27099 4 6
c27100 2 0
c27100 2 1
c27100 2 2
c27100 2 5
c27100 2 6
c27102 0 6
c27102 1 6
c27102 3 6
c27102 4 5
c27102 4 6
c27106 0 0
c27106 0 1
c27106 0 2
c27106 0 6
c27106 3 6
c27107 0 0
c27107 0 1
c27107 0 2
c27107 0 4
c27107 0 5
c27111 0 0
c27111 3 0
c27111 3 1
c27111 3 2
c27111 3 4
c27112 0 6
c27112 1 6
c27112 2 6
c27112 3 6
c27112 4 6
c27113 0 6
c27113 3 6
c27113 4 4
c27113 4 5
c27113 4 6
c27114 0 6
c27114 1 6
c27114 2 6
c27114 3 6
c27114 4 6
c27121 0 2
c27121 1 2
c27121 2 2
c27121 3 2
c27121 4 2
c27124 3 2
c27124 3 4
c27124 3 5
c27124 4 0
c27124 4 1
c27125 0 0
c27125 0 6
c27125 2 5
c27125 3 5
c27125 4 5
c27126 0 0
c27126 3 0
c27126 4 0
c27126 4 5
c27126 4 6
c27127 0 0
c27127 0 1
c27127 0 2
c27127 4 5
c27127 4 6
c27128 0 0
c27128 1 0
c27128 2 0
c27128 3 0
c27128 4 0
c27129 0 0
c27129 0 1
c27129 0 2
c27129 4 5
c27129 4 6
c27133 2 6
c27133 3 5
c27133 3 6
c27133 4 5
c27133 4 6
c27134 0 0
c27134 1 0
c27134 2 0
c27134 3 0
c27134 4 0
c27135 0 0
c27135 1 0
c27135 2 0
c27135 3 0
c27135 4 0
c27147 0 0
c27147 0 1
c27147 0 2
c27147 0 4
c27147 2 1
c27148 0 0
c27148 1 0
c27148 2 0
c27148 3 0
c27148 4 0
c27151 4 0
c27151 4 1
c27151 4 2
c27151 4 4
c27151 4 5
c27152 1 2
c27152 1 5
c27152 2 2
c27152 3 2
c27152 3 4
c27160 0 0
c27160 1 0
c27160 2 0
c27160 3 0
c27160 4 0
c27162 2 2
c27162 2 5
c27162 3 0
c27162 3 1
c27162 3 6
c27163 0 0
c27163 0 1
c27163 1 0
c27163 2 0
c27163 3 0
c27164 0 0
c27164 0 1
c27164 1 0
c27164 2 0
c27164 3 0
c27165 4 1
c27165 4 2
c27165 4 4
c27165 4 5
c27165 4 6
c27168 0 6
c27168 1 6
c27168 3 6
c27168 4 5
c27168 4 6
c27169 0 0
c27169 0 6
c27169 2 5
c27169 3 5
c27169 4 5
c27170 0 0
c27170 0 1
c27170 1 0
c27170 1 1
c27170 2 0
c27172 0 0
c27172 4 2
c27172 4 4
c27172 4 5
c27172 4 6
c27173 0 0
c27173 4 2
c27173 4 4
c27173 4 5
c27173 4 6
c27174 0 0
c27174 0 1
c27174 0 2
c27174 4 0
c27174 4 1
c27176 0 0
c27176 1 0
c27176 2 0
c27176 3 0
c27176 4 0
c27177 0 0
c27177 0 1
c27177 0 2
c27177 4 5
c27177 4 6
c27183 0 0
c27183 3 0
c27183 3 1
c27183 3 2
c27183 3 4
c27184 0 0
c27184 4 2
c27184 4 4
c27184 4 5
c27184 4 6
c27186 0 0
c27186 0 1
c27186 0 2
c27186 0 4
c27186 0 5
c27189 3 4
c27189 3 5
c27189 4 4
c27189 4 5
c27189 4 6
c27192 0 0
c27192 0 1
c27192 4 4
c27192 4 5
c27192 4 6
c27193 0 4
c27193 1 4
c27193 3 4
c27193 4 4
c27194 0 0
c27194 1 0
c27194 2 0
c27194 3 0
c27194 4 0
c27195 0 5
c27195 1 5
c27195 2 5
c27195 3 5
c27195 4 5
c27199 0 0
c27199 1 0
c27199 2 0
c27199 3 0
c27199 4 0
c27201 0 0
c27201 0 6
c27201 2 5
c27201 3 5
c27201 4 5
c27204 0 0
c27204 3 0
c27204 4 0
c27204 4 5
c27204 4 6
c27205 0 0
c27205 3 0
c27205 4 0
c27205 4 5
c27205 4 6
c27206 0 0
c27206 0 1
c27206 0 2
c27206 0 6
c27206 3 6
c27206 4 4
c27206 4 5
c27206 4 6
c27916 0 0
c27916 1 0
c27916 1 1
c27916 2 0
c27916 2 1
c47562 2 6
c47562 3 5
c47562 3 6
c47562 4 5
c47562 4 6

ROOM_CONSTRAINTS:
c26995 r843
c26995 r844
c26996 r843
c26996 r844
c26997 r840
c26997 r841
c27012 r845
c27021 r908
c27021 r1423
c27029 r848
c27036 r908
c27036 r1423
c27045 r908
c27056 r842
c27056 r846
c27063 r842
c27063 r844
c27064 r843
c27064 r844
c27065 r842
c27065 r843
c27067 r842
c27067 r844
c27068 r842
c27068 r844
c27071 r842
c27071 r843
c27074 r842
c27074 r843
c27075 r842
c27075 r843
c27079 r846
c27086 r842
c27086 r843
c27087 r908
c27087 r1423
c27090 r848
c27091 r848
c27095 r908
c27100 r842
c27100 r844
c27102 r842
c27102 r843
c27107 r840
c27107 r846
c27110 r843
c27110 r844
c27111 r840
c27111 r841
c27112 r843
c27112 r908
c27113 r842
c27113 r843
c27121 r843
c27121 r844
c27133 r842
c27133 r843
c27134 r839
c27147 r842
c27147 r843
c27151 r839
c27151 r845
c27168 r1423
c27170 r842
c27170 r843
c27171 r839
c27171 r848
c27172 r844
c27172 r908
c27173 r844
c27173 r908
c27174 r843
c27174 r844
c27177 r908
c27177 r1423
c27184 r908
c27189 r908
c27189 r1423
c27193 r908
c27194 r908
c27194 r1423
c27199 r839
c27199 r848
c27206 r908
c27206 r1423
c47562 r842
c47562 r843

END.
